Route #1: 6 73 1 43 63 33
Route #2: 23 56 41 42 64 22
Route #3: 68 2 28 74 30
Route #4: 48 47 21 61 62
Route #5: 36 69 71 60 70 20 37 29
Route #6: 27 13 57 15 5 45
Route #7: 75 4 34 67
Route #8: 52 54 19 8 46
Route #9: 35 14 53 7 26
Route #10: 59 66 11
Route #11: 38 65 10 31 12
Route #12: 58 72 39 9 40
Route #13: 50 25 55 18 24 49 51
Route #14: 16 3 44 32 17
Cost 1028
Time 0.148212
